
Gurobi 8.0.0 (mac64, Python) logging started Mon Aug  2 20:11:06 2021


Gurobi 8.0.0 (mac64, Python) logging started Mon Aug  2 20:12:22 2021


Gurobi 8.0.0 (mac64, Python) logging started Mon Sep 13 16:09:07 2021


Gurobi 8.0.0 (mac64, Python) logging started Mon Sep 13 16:17:45 2021

Academic license - for non-commercial use only
Freed default Gurobi environment

Gurobi 8.0.0 (mac64, Python) logging started Mon Sep 13 16:19:09 2021

Academic license - for non-commercial use only
Freed default Gurobi environment

Gurobi 8.0.0 (mac64, Python) logging started Mon Sep 13 16:20:12 2021

Academic license - for non-commercial use only
Freed default Gurobi environment

Gurobi 8.0.0 (mac64, Python) logging started Mon Sep 13 16:25:42 2021

Academic license - for non-commercial use only
Freed default Gurobi environment

Gurobi 8.0.0 (mac64, Python) logging started Mon Sep 13 16:33:04 2021

Academic license - for non-commercial use only
Freed default Gurobi environment

Gurobi 8.0.0 (mac64, Python) logging started Mon Sep 13 16:35:58 2021

Academic license - for non-commercial use only
Freed default Gurobi environment

Gurobi 8.0.0 (mac64, Python) logging started Mon Sep 13 16:36:51 2021

Academic license - for non-commercial use only
Freed default Gurobi environment

Gurobi 8.0.0 (mac64, Python) logging started Mon Sep 13 16:53:06 2021

Academic license - for non-commercial use only
Freed default Gurobi environment

Gurobi 8.0.0 (mac64, Python) logging started Mon Sep 13 17:01:10 2021

Academic license - for non-commercial use only
Freed default Gurobi environment

Gurobi 8.0.0 (mac64, Python) logging started Mon Sep 13 17:11:58 2021

Academic license - for non-commercial use only
Freed default Gurobi environment

Gurobi 8.0.0 (mac64, Python) logging started Mon Sep 13 17:13:13 2021

Academic license - for non-commercial use only
Freed default Gurobi environment

Gurobi 8.0.0 (mac64, Python) logging started Mon Sep 13 17:13:26 2021

Academic license - for non-commercial use only
Freed default Gurobi environment

Gurobi 8.0.0 (mac64, Python) logging started Mon Sep 13 17:21:48 2021

Academic license - for non-commercial use only
Freed default Gurobi environment

Gurobi 8.0.0 (mac64, Python) logging started Mon Sep 13 17:27:03 2021

Academic license - for non-commercial use only
Freed default Gurobi environment

Gurobi 8.0.0 (mac64, Python) logging started Mon Sep 13 17:29:22 2021

Academic license - for non-commercial use only
Freed default Gurobi environment

Gurobi 8.0.0 (mac64, Python) logging started Mon Sep 13 17:30:01 2021

Academic license - for non-commercial use only
Freed default Gurobi environment

Gurobi 8.0.0 (mac64, Python) logging started Mon Sep 13 17:30:59 2021

Academic license - for non-commercial use only
Freed default Gurobi environment

Gurobi 8.0.0 (mac64, Python) logging started Mon Sep 13 17:31:28 2021

Academic license - for non-commercial use only
Freed default Gurobi environment

Gurobi 8.0.0 (mac64, Python) logging started Mon Sep 13 17:33:23 2021

Academic license - for non-commercial use only
Freed default Gurobi environment

Gurobi 8.0.0 (mac64, Python) logging started Mon Sep 13 17:34:11 2021

Academic license - for non-commercial use only
Freed default Gurobi environment

Gurobi 8.0.0 (mac64, Python) logging started Mon Sep 13 17:34:37 2021

Academic license - for non-commercial use only
Freed default Gurobi environment

Gurobi 8.0.0 (mac64, Python) logging started Mon Sep 13 17:35:00 2021

Academic license - for non-commercial use only
Freed default Gurobi environment

Gurobi 8.0.0 (mac64, Python) logging started Mon Sep 13 17:36:27 2021

Academic license - for non-commercial use only
Freed default Gurobi environment

Gurobi 8.0.0 (mac64, Python) logging started Mon Sep 13 17:36:44 2021

Academic license - for non-commercial use only
Freed default Gurobi environment

Gurobi 8.0.0 (mac64, Python) logging started Mon Sep 13 17:41:53 2021

Academic license - for non-commercial use only
Freed default Gurobi environment

Gurobi 8.0.0 (mac64, Python) logging started Mon Sep 13 17:44:47 2021

Academic license - for non-commercial use only
Freed default Gurobi environment

Gurobi 8.0.0 (mac64, Python) logging started Mon Sep 13 17:53:41 2021

Academic license - for non-commercial use only
Freed default Gurobi environment

Gurobi 8.0.0 (mac64, Python) logging started Mon Sep 13 17:54:34 2021

Academic license - for non-commercial use only
Freed default Gurobi environment

Gurobi 8.0.0 (mac64, Python) logging started Mon Sep 13 17:55:44 2021

Academic license - for non-commercial use only
Freed default Gurobi environment

Gurobi 8.0.0 (mac64, Python) logging started Mon Sep 13 18:03:08 2021

Academic license - for non-commercial use only
Freed default Gurobi environment

Gurobi 8.0.0 (mac64, Python) logging started Mon Sep 13 18:15:44 2021

Academic license - for non-commercial use only
Freed default Gurobi environment

Gurobi 8.0.0 (mac64, Python) logging started Thu Sep 16 10:26:19 2021

Academic license - for non-commercial use only
Freed default Gurobi environment

Gurobi 8.0.0 (mac64, Python) logging started Thu Sep 16 10:27:39 2021

Academic license - for non-commercial use only
Freed default Gurobi environment

Gurobi 8.0.0 (mac64, Python) logging started Thu Sep 16 10:30:44 2021

Academic license - for non-commercial use only
Freed default Gurobi environment

Gurobi 8.0.0 (mac64, Python) logging started Thu Sep 16 10:30:59 2021

Academic license - for non-commercial use only
Freed default Gurobi environment

Gurobi 8.0.0 (mac64, Python) logging started Thu Sep 16 10:36:17 2021

Academic license - for non-commercial use only
Freed default Gurobi environment

Gurobi 8.0.0 (mac64, Python) logging started Thu Sep 16 10:40:24 2021

Academic license - for non-commercial use only
Freed default Gurobi environment

Gurobi 8.0.0 (mac64, Python) logging started Thu Sep 16 10:41:22 2021

Academic license - for non-commercial use only
Freed default Gurobi environment

Gurobi 8.0.0 (mac64, Python) logging started Thu Sep 16 10:51:21 2021

Academic license - for non-commercial use only
Freed default Gurobi environment

Gurobi 8.0.0 (mac64, Python) logging started Thu Sep 16 10:55:24 2021

Academic license - for non-commercial use only
Freed default Gurobi environment

Gurobi 8.0.0 (mac64, Python) logging started Thu Sep 16 10:55:44 2021

Academic license - for non-commercial use only
Freed default Gurobi environment

Gurobi 8.0.0 (mac64, Python) logging started Thu Sep 16 10:56:58 2021

Academic license - for non-commercial use only
Freed default Gurobi environment

Gurobi 8.0.0 (mac64, Python) logging started Thu Sep 16 11:35:15 2021

Academic license - for non-commercial use only
Freed default Gurobi environment

Gurobi 8.0.0 (mac64, Python) logging started Thu Sep 16 11:35:49 2021

Academic license - for non-commercial use only
Freed default Gurobi environment

Gurobi 8.0.0 (mac64, Python) logging started Thu Sep 16 11:37:11 2021

Academic license - for non-commercial use only
Freed default Gurobi environment

Gurobi 8.0.0 (mac64, Python) logging started Fri Sep 17 12:01:11 2021

Academic license - for non-commercial use only
Freed default Gurobi environment

Gurobi 8.0.0 (mac64, Python) logging started Fri Sep 17 12:04:19 2021

Academic license - for non-commercial use only
Freed default Gurobi environment

Gurobi 8.0.0 (mac64, Python) logging started Fri Sep 17 12:47:46 2021

Academic license - for non-commercial use only
Freed default Gurobi environment

Gurobi 8.0.0 (mac64, Python) logging started Fri Sep 17 13:22:42 2021

Academic license - for non-commercial use only
Freed default Gurobi environment

Gurobi 8.0.0 (mac64, Python) logging started Fri Sep 17 13:29:00 2021

Academic license - for non-commercial use only
Freed default Gurobi environment

Gurobi 8.0.0 (mac64, Python) logging started Sun Sep 19 16:47:34 2021

Academic license - for non-commercial use only
Freed default Gurobi environment

Gurobi 8.0.0 (mac64, Python) logging started Sun Sep 19 16:47:54 2021

Academic license - for non-commercial use only
Freed default Gurobi environment

Gurobi 8.0.0 (mac64, Python) logging started Sun Sep 19 16:51:49 2021

Academic license - for non-commercial use only
Freed default Gurobi environment

Gurobi 8.0.0 (mac64, Python) logging started Sun Sep 19 16:54:24 2021

Academic license - for non-commercial use only
Freed default Gurobi environment

Gurobi 8.0.0 (mac64, Python) logging started Sun Sep 19 16:55:16 2021

Academic license - for non-commercial use only
Freed default Gurobi environment

Gurobi 8.0.0 (mac64, Python) logging started Mon Oct  4 12:48:42 2021

Academic license - for non-commercial use only
Freed default Gurobi environment

Gurobi 8.0.0 (mac64, Python) logging started Mon Oct  4 12:49:44 2021

Academic license - for non-commercial use only
Freed default Gurobi environment
